NAME:22_11
TYPE: TSP
DIMENSION: 22
EDGE_WEIGHT_TYPE: EXPLICIT
EDGE_WEIGHT_FORMAT: UPPER_ROW
EDGE_WEIGHT_SECTION
300 300 300 300 300 300 300 300 300 300 0 133 143 128 118 150 123 123 128 133 133 300 300 300 300 300 300 300 300 300 122 0 125 125 115 127 115 110 110 110 105 300 300 300 300 300 300 300 300 107 115 0 100 100 107 105 105 110 115 115 300 300 300 300 300 300 300 112 115 115 0 115 122 116 111 116 121 120 300 300 300 300 300 300 132 115 140 135 0 132 130 125 125 125 120 300 300 300 300 300 100 108 118 103 118 0 118 113 113 113 108 300 300 300 300 107 110 135 135 100 132 0 100 105 110 110 300 300 300 112 110 135 135 105 137 105 0 105 110 110 300 300 112 105 130 130 105 132 105 100 0 105 105 300 112 100 125 125 105 127 105 100 100 0 100 117 100 125 125 110 127 110 105 105 105 0 300 300 300 300 300 300 300 300 300 300 300 300 300 300 300 300 300 300 300 300 300 300 300 300 300 300 300 300 300 300 300 300 300 300 300 300 300 300 300 300 300 300 300 300 300 300 300 300 300 300 300 300 300 300 300 